
Gurobi 8.1.1 (mac64, Python) logging started Wed Oct  9 14:06:52 2019


Gurobi 8.1.1 (win64, Python) logging started 10/09/19 15:08:37


--------------------------------------------
Warning: your license will expire in 7 days
--------------------------------------------


Gurobi 8.1.1 (win64, Python) logging started 10/09/19 15:33:41


--------------------------------------------
Warning: your license will expire in 7 days
--------------------------------------------


Gurobi 8.1.1 (win64, Python) logging started 10/09/19 15:34:28


--------------------------------------------
Warning: your license will expire in 7 days
--------------------------------------------


Gurobi 8.1.1 (win64, Python) logging started 10/09/19 15:56:47


--------------------------------------------
Warning: your license will expire in 7 days
--------------------------------------------


Gurobi 8.1.1 (win64, Python) logging started 10/09/19 15:57:25


--------------------------------------------
Warning: your license will expire in 7 days
--------------------------------------------


Gurobi 8.1.1 (win64, Python) logging started 10/09/19 15:58:14


--------------------------------------------
Warning: your license will expire in 7 days
--------------------------------------------


Gurobi 8.1.1 (win64, Python) logging started 10/09/19 15:58:47


--------------------------------------------
Warning: your license will expire in 7 days
--------------------------------------------


Gurobi 8.1.1 (win64, Python) logging started 10/09/19 15:59:17


--------------------------------------------
Warning: your license will expire in 7 days
--------------------------------------------


Gurobi 8.1.1 (win64, Python) logging started 10/09/19 15:59:34


--------------------------------------------
Warning: your license will expire in 7 days
--------------------------------------------


Gurobi 8.1.1 (win64, Python) logging started 10/09/19 16:00:01


--------------------------------------------
Warning: your license will expire in 7 days
--------------------------------------------


Gurobi 8.1.1 (win64, Python) logging started 10/09/19 16:24:26


--------------------------------------------
Warning: your license will expire in 7 days
--------------------------------------------


Gurobi 8.1.1 (win64, Python) logging started 10/09/19 16:25:20


--------------------------------------------
Warning: your license will expire in 7 days
--------------------------------------------


Gurobi 8.1.1 (win64, Python) logging started 10/09/19 16:29:58


--------------------------------------------
Warning: your license will expire in 7 days
--------------------------------------------


Gurobi 8.1.1 (win64, Python) logging started 10/09/19 16:35:10


--------------------------------------------
Warning: your license will expire in 7 days
--------------------------------------------


Gurobi 8.1.1 (win64, Python) logging started 10/09/19 16:37:54


--------------------------------------------
Warning: your license will expire in 7 days
--------------------------------------------


Gurobi 8.1.1 (win64, Python) logging started 10/09/19 16:38:17


--------------------------------------------
Warning: your license will expire in 7 days
--------------------------------------------


Gurobi 8.1.1 (win64, Python) logging started 10/09/19 17:18:23


--------------------------------------------
Warning: your license will expire in 7 days
--------------------------------------------


Gurobi 8.1.1 (win64, Python) logging started 10/09/19 17:22:51


--------------------------------------------
Warning: your license will expire in 7 days
--------------------------------------------


Gurobi 8.1.1 (win64, Python) logging started 10/09/19 17:27:16


--------------------------------------------
Warning: your license will expire in 7 days
--------------------------------------------


Gurobi 8.1.1 (win64, Python) logging started 10/09/19 17:29:07


--------------------------------------------
Warning: your license will expire in 7 days
--------------------------------------------


Gurobi 8.1.1 (win64, Python) logging started 10/09/19 17:59:50


--------------------------------------------
Warning: your license will expire in 7 days
--------------------------------------------


Gurobi 8.1.1 (win64, Python) logging started 10/09/19 18:01:01


--------------------------------------------
Warning: your license will expire in 7 days
--------------------------------------------


Gurobi 8.1.1 (win64, Python) logging started 10/09/19 18:09:57


--------------------------------------------
Warning: your license will expire in 7 days
--------------------------------------------


Gurobi 8.1.1 (win64, Python) logging started 10/09/19 18:36:41


--------------------------------------------
Warning: your license will expire in 7 days
--------------------------------------------


Gurobi 8.1.1 (win64, Python) logging started 10/09/19 18:49:17


--------------------------------------------
Warning: your license will expire in 7 days
--------------------------------------------


Gurobi 8.1.1 (win64, Python) logging started 10/09/19 19:18:47


--------------------------------------------
Warning: your license will expire in 7 days
--------------------------------------------


Gurobi 8.1.1 (win64, Python) logging started 10/09/19 19:19:05


--------------------------------------------
Warning: your license will expire in 7 days
--------------------------------------------


Gurobi 8.1.1 (win64, Python) logging started 10/09/19 19:22:56


--------------------------------------------
Warning: your license will expire in 7 days
--------------------------------------------


Gurobi 8.1.1 (win64, Python) logging started 10/09/19 19:28:24


--------------------------------------------
Warning: your license will expire in 7 days
--------------------------------------------


Gurobi 8.1.1 (win64, Python) logging started 10/09/19 19:42:40


--------------------------------------------
Warning: your license will expire in 7 days
--------------------------------------------


Gurobi 8.1.1 (win64, Python) logging started 10/09/19 19:44:50


--------------------------------------------
Warning: your license will expire in 7 days
--------------------------------------------


Gurobi 8.1.1 (win64, Python) logging started 10/09/19 20:06:58


--------------------------------------------
Warning: your license will expire in 7 days
--------------------------------------------


Gurobi 8.1.1 (win64, Python) logging started 10/09/19 20:07:30


--------------------------------------------
Warning: your license will expire in 7 days
--------------------------------------------


Gurobi 8.1.1 (win64, Python) logging started 10/11/19 10:58:20


--------------------------------------------
Warning: your license will expire in 5 days
--------------------------------------------


Gurobi 8.1.1 (win64, Python) logging started 10/20/19 14:31:19


Gurobi 8.1.1 (mac64, Python) logging started Wed Nov  6 16:24:45 2019


Gurobi 8.1.1 (mac64, Python) logging started Wed Nov  6 16:26:27 2019


Gurobi 8.1.1 (mac64, Python) logging started Wed Nov  6 17:19:03 2019


Gurobi 8.1.1 (mac64, Python) logging started Wed Nov  6 17:21:12 2019


Gurobi 8.1.1 (mac64, Python) logging started Wed Nov  6 17:33:52 2019


Gurobi 8.1.1 (mac64, Python) logging started Wed Nov  6 18:00:36 2019


Gurobi 8.1.1 (mac64, Python) logging started Wed Nov  6 18:01:55 2019


Gurobi 8.1.1 (mac64, Python) logging started Wed Nov  6 18:02:17 2019


Gurobi 8.1.1 (mac64, Python) logging started Wed Nov  6 18:04:43 2019


Gurobi 8.1.1 (mac64, Python) logging started Wed Nov  6 18:06:51 2019


Gurobi 8.1.1 (mac64, Python) logging started Wed Nov  6 18:07:41 2019


Gurobi 8.1.1 (mac64, Python) logging started Wed Nov  6 18:13:57 2019


Gurobi 8.1.1 (mac64, Python) logging started Wed Nov  6 18:14:50 2019


Gurobi 8.1.1 (mac64, Python) logging started Wed Nov  6 18:15:55 2019


Gurobi 8.1.1 (mac64, Python) logging started Wed Nov  6 18:16:32 2019


Gurobi 8.1.1 (mac64, Python) logging started Wed Nov  6 18:17:55 2019


Gurobi 8.1.1 (mac64, Python) logging started Wed Nov  6 18:18:33 2019


Gurobi 8.1.1 (mac64, Python) logging started Wed Nov  6 18:26:20 2019


Gurobi 8.1.1 (mac64, Python) logging started Wed Nov  6 18:26:53 2019


Gurobi 8.1.1 (mac64, Python) logging started Wed Nov  6 18:28:24 2019


Gurobi 8.1.1 (mac64, Python) logging started Wed Nov  6 18:33:03 2019


Gurobi 8.1.1 (mac64, Python) logging started Wed Nov  6 18:33:20 2019


Gurobi 8.1.1 (mac64, Python) logging started Wed Nov  6 18:34:52 2019


Gurobi 8.1.1 (mac64, Python) logging started Wed Nov  6 18:40:29 2019


Gurobi 8.1.1 (mac64, Python) logging started Wed Nov  6 18:53:35 2019


Gurobi 8.1.1 (mac64, Python) logging started Wed Nov  6 18:54:59 2019


Gurobi 8.1.1 (mac64, Python) logging started Wed Nov  6 18:57:19 2019


Gurobi 8.1.1 (mac64, Python) logging started Wed Nov  6 18:58:01 2019


Gurobi 8.1.1 (mac64, Python) logging started Wed Nov  6 19:01:00 2019


Gurobi 8.1.1 (mac64, Python) logging started Wed Nov  6 19:07:34 2019


Gurobi 8.1.1 (mac64, Python) logging started Wed Nov  6 19:18:18 2019


Gurobi 8.1.1 (mac64, Python) logging started Wed Nov  6 19:19:30 2019


Gurobi 8.1.1 (mac64, Python) logging started Wed Nov  6 19:20:06 2019


Gurobi 8.1.1 (mac64, Python) logging started Wed Nov  6 19:22:02 2019


Gurobi 8.1.1 (mac64, Python) logging started Wed Nov  6 19:39:56 2019


Gurobi 8.1.1 (mac64, Python) logging started Thu Nov  7 11:53:16 2019


Gurobi 8.1.1 (mac64, Python) logging started Tue Nov 12 13:59:40 2019


Gurobi 8.1.1 (mac64, Python) logging started Sun Nov 17 21:49:15 2019


Gurobi 8.1.1 (win64, Python) logging started 11/18/19 13:44:35


Gurobi 8.1.1 (win64, Python) logging started 11/25/19 04:59:21


Gurobi 8.1.1 (win64, Python) logging started 11/25/19 09:12:10


Gurobi 8.1.1 (win64, Python) logging started 01/05/20 23:15:46

